NAME : netgen22-5_19
COMMENT : Generated using the function generateClusteredNetwork from the R-package netgen (Bossek,2015) - Number of clusters: 5
TYPE : TSP
DIMENSION : 22
EDGE_WEIGHT_TYPE : EUC_2D
NODE_COORD_SECTION
1 61.5897078916 95.4638994534
2 59.5404956204 85.3570349414
3 53.5831378929 90.390983463
4 58.9344081394 84.795188289
5 30.4617401018 38.3085722195
6 34.0001358297 28.417222292
7 44.0280338501 34.7480326147
8 38.3966136753 47.3745827744
9 38.3760937132 39.0456835782
10 45.0228366298 39.902016001
11 82.1699483368 0.5387836827
12 65.3271407733 11.3187837476
13 82.2191868587 11.4187834114
14 81.0718904056 15.7719555215
15 84.7294265123 74.5624248455
16 88.0371984431 68.2756958063
17 85.152287623 58.7843649422
18 89.4327763221 74.1042859578
19 12.2219648461 46.7442017136
20 19.4131458941 45.5178164278
21 13.3706598333 46.4288119901
22 13.7897561902 52.0765827915
EOF
